NAME
ROWS
 N  OBJ
 G  c1
 G  c2
 G  c3
 G  c4
 G  c5
 G  c6
 G  c7
 G  c8
 G  c9
 G  c10
 G  c11
 G  c12
 G  c13
 G  c14
 G  c15
 G  c16
 G  c17
 G  c18
 G  c19
 G  c20
 G  c21
 G  c22
 G  c23
 G  c24
 G  c25
 G  c26
 G  c27
 G  c28
 G  c29
 G  c30
 G  c31
 G  c32
 G  c33
 G  c34
 G  c35
 G  c36
 G  c37
 G  c38
 G  c39
 G  c40
 G  c41
 G  c42
 G  c43
 G  c44
 G  c45
 G  c46
 G  c47
 G  c48
 G  c49
 G  c50
COLUMNS
    MARKER    'MARKER'                 'INTORG'
    x[1]      c1        1
    x[1]      c13       1
    x[1]      c30       1
    x[1]      c33       1
    x[1]      c35       1
    x[1]      c42       1
    x[1]      OBJ       1
    x[2]      c2        1
    x[2]      c14       1
    x[2]      c17       1
    x[2]      c39       1
    x[2]      OBJ       1
    x[3]      c3        1
    x[3]      c4        1
    x[3]      c5        1
    x[3]      c22       1
    x[3]      c35       1
    x[3]      c43       1
    x[3]      OBJ       1
    x[4]      c3        1
    x[4]      c4        1
    x[4]      c8        1
    x[4]      c9        1
    x[4]      c32       1
    x[4]      OBJ       1
    x[5]      c3        1
    x[5]      c5        1
    x[5]      c6        1
    x[5]      c43       1
    x[5]      OBJ       1
    x[6]      c5        1
    x[6]      c6        1
    x[6]      c7        1
    x[6]      c40       1
    x[6]      OBJ       1
    x[7]      c6        1
    x[7]      c7        1
    x[7]      c16       1
    x[7]      c21       1
    x[7]      c23       1
    x[7]      c24       1
    x[7]      OBJ       1
    x[8]      c4        1
    x[8]      c8        1
    x[8]      c22       1
    x[8]      c37       1
    x[8]      c42       1
    x[8]      c47       1
    x[8]      c49       1
    x[8]      OBJ       1
    x[9]      c4        1
    x[9]      c9        1
    x[9]      c26       1
    x[9]      c30       1
    x[9]      c33       1
    x[9]      c34       1
    x[9]      c40       1
    x[9]      c43       1
    x[9]      OBJ       1
    x[10]     c10       1
    x[10]     c22       1
    x[10]     c29       1
    x[10]     c33       1
    x[10]     c38       1
    x[10]     OBJ       1
    x[11]     c11       1
    x[11]     c15       1
    x[11]     c17       1
    x[11]     c22       1
    x[11]     c27       1
    x[11]     c28       1
    x[11]     c30       1
    x[11]     c34       1
    x[11]     c44       1
    x[11]     c45       1
    x[11]     c49       1
    x[11]     OBJ       1
    x[12]     c12       1
    x[12]     c20       1
    x[12]     OBJ       1
    x[13]     c1        1
    x[13]     c13       1
    x[13]     c14       1
    x[13]     c29       1
    x[13]     c47       1
    x[13]     OBJ       1
    x[14]     c2        1
    x[14]     c13       1
    x[14]     c14       1
    x[14]     c15       1
    x[14]     c17       1
    x[14]     c27       1
    x[14]     c31       1
    x[14]     OBJ       1
    x[15]     c11       1
    x[15]     c14       1
    x[15]     c15       1
    x[15]     c43       1
    x[15]     OBJ       1
    x[16]     c7        1
    x[16]     c16       1
    x[16]     c17       1
    x[16]     c26       1
    x[16]     c42       1
    x[16]     OBJ       1
    x[17]     c2        1
    x[17]     c11       1
    x[17]     c14       1
    x[17]     c16       1
    x[17]     c17       1
    x[17]     c21       1
    x[17]     c33       1
    x[17]     c37       1
    x[17]     c38       1
    x[17]     c48       1
    x[17]     OBJ       1
    x[18]     c18       1
    x[18]     c20       1
    x[18]     c27       1
    x[18]     c28       1
    x[18]     c31       1
    x[18]     c42       1
    x[18]     c46       1
    x[18]     c48       1
    x[18]     c50       1
    x[18]     OBJ       1
    x[19]     c19       1
    x[19]     OBJ       1
    x[20]     c12       1
    x[20]     c18       1
    x[20]     c20       1
    x[20]     c22       1
    x[20]     c26       1
    x[20]     OBJ       1
    x[21]     c7        1
    x[21]     c17       1
    x[21]     c21       1
    x[21]     c34       1
    x[21]     c45       1
    x[21]     c48       1
    x[21]     OBJ       1
    x[22]     c3        1
    x[22]     c8        1
    x[22]     c10       1
    x[22]     c11       1
    x[22]     c20       1
    x[22]     c22       1
    x[22]     c27       1
    x[22]     c28       1
    x[22]     c31       1
    x[22]     OBJ       1
    x[23]     c7        1
    x[23]     c23       1
    x[23]     c36       1
    x[23]     OBJ       1
    x[24]     c7        1
    x[24]     c24       1
    x[24]     c26       1
    x[24]     c31       1
    x[24]     c32       1
    x[24]     c44       1
    x[24]     OBJ       1
    x[25]     c25       1
    x[25]     c29       1
    x[25]     c44       1
    x[25]     OBJ       1
    x[26]     c9        1
    x[26]     c16       1
    x[26]     c20       1
    x[26]     c24       1
    x[26]     c26       1
    x[26]     c30       1
    x[26]     c32       1
    x[26]     c50       1
    x[26]     OBJ       1
    x[27]     c11       1
    x[27]     c14       1
    x[27]     c18       1
    x[27]     c22       1
    x[27]     c27       1
    x[27]     c50       1
    x[27]     OBJ       1
    x[28]     c11       1
    x[28]     c18       1
    x[28]     c22       1
    x[28]     c28       1
    x[28]     c48       1
    x[28]     OBJ       1
    x[29]     c10       1
    x[29]     c13       1
    x[29]     c25       1
    x[29]     c29       1
    x[29]     c38       1
    x[29]     c45       1
    x[29]     OBJ       1
    x[30]     c1        1
    x[30]     c9        1
    x[30]     c11       1
    x[30]     c26       1
    x[30]     c30       1
    x[30]     c44       1
    x[30]     c47       1
    x[30]     OBJ       1
    x[31]     c14       1
    x[31]     c18       1
    x[31]     c22       1
    x[31]     c24       1
    x[31]     c31       1
    x[31]     OBJ       1
    x[32]     c4        1
    x[32]     c24       1
    x[32]     c26       1
    x[32]     c32       1
    x[32]     c36       1
    x[32]     c41       1
    x[32]     OBJ       1
    x[33]     c1        1
    x[33]     c9        1
    x[33]     c10       1
    x[33]     c17       1
    x[33]     c33       1
    x[33]     c44       1
    x[33]     c48       1
    x[33]     OBJ       1
    x[34]     c9        1
    x[34]     c11       1
    x[34]     c21       1
    x[34]     c34       1
    x[34]     c45       1
    x[34]     c46       1
    x[34]     c49       1
    x[34]     c50       1
    x[34]     OBJ       1
    x[35]     c1        1
    x[35]     c3        1
    x[35]     c35       1
    x[35]     c37       1
    x[35]     c47       1
    x[35]     OBJ       1
    x[36]     c23       1
    x[36]     c32       1
    x[36]     c36       1
    x[36]     c39       1
    x[36]     c43       1
    x[36]     c46       1
    x[36]     OBJ       1
    x[37]     c8        1
    x[37]     c17       1
    x[37]     c35       1
    x[37]     c37       1
    x[37]     c46       1
    x[37]     OBJ       1
    x[38]     c10       1
    x[38]     c17       1
    x[38]     c29       1
    x[38]     c38       1
    x[38]     c40       1
    x[38]     c42       1
    x[38]     c50       1
    x[38]     OBJ       1
    x[39]     c2        1
    x[39]     c36       1
    x[39]     c39       1
    x[39]     c40       1
    x[39]     c50       1
    x[39]     OBJ       1
    x[40]     c6        1
    x[40]     c9        1
    x[40]     c38       1
    x[40]     c39       1
    x[40]     c40       1
    x[40]     c41       1
    x[40]     OBJ       1
    x[41]     c32       1
    x[41]     c40       1
    x[41]     c41       1
    x[41]     OBJ       1
    x[42]     c1        1
    x[42]     c8        1
    x[42]     c16       1
    x[42]     c18       1
    x[42]     c38       1
    x[42]     c42       1
    x[42]     c47       1
    x[42]     c49       1
    x[42]     c50       1
    x[42]     OBJ       1
    x[43]     c3        1
    x[43]     c5        1
    x[43]     c9        1
    x[43]     c15       1
    x[43]     c36       1
    x[43]     c43       1
    x[43]     c49       1
    x[43]     OBJ       1
    x[44]     c11       1
    x[44]     c24       1
    x[44]     c25       1
    x[44]     c30       1
    x[44]     c33       1
    x[44]     c44       1
    x[44]     OBJ       1
    x[45]     c11       1
    x[45]     c21       1
    x[45]     c29       1
    x[45]     c34       1
    x[45]     c45       1
    x[45]     OBJ       1
    x[46]     c18       1
    x[46]     c34       1
    x[46]     c36       1
    x[46]     c37       1
    x[46]     c46       1
    x[46]     OBJ       1
    x[47]     c8        1
    x[47]     c13       1
    x[47]     c30       1
    x[47]     c35       1
    x[47]     c42       1
    x[47]     c47       1
    x[47]     OBJ       1
    x[48]     c17       1
    x[48]     c18       1
    x[48]     c21       1
    x[48]     c28       1
    x[48]     c33       1
    x[48]     c48       1
    x[48]     OBJ       1
    x[49]     c8        1
    x[49]     c11       1
    x[49]     c34       1
    x[49]     c42       1
    x[49]     c43       1
    x[49]     c49       1
    x[49]     OBJ       1
    x[50]     c18       1
    x[50]     c26       1
    x[50]     c27       1
    x[50]     c34       1
    x[50]     c38       1
    x[50]     c39       1
    x[50]     c42       1
    x[50]     c50       1
    x[50]     OBJ       1
    MARKER    'MARKER'                 'INTEND'
RHS
    rhs       c1        1
    rhs       c2        1
    rhs       c3        1
    rhs       c4        1
    rhs       c5        1
    rhs       c6        1
    rhs       c7        1
    rhs       c8        1
    rhs       c9        1
    rhs       c10       1
    rhs       c11       1
    rhs       c12       1
    rhs       c13       1
    rhs       c14       1
    rhs       c15       1
    rhs       c16       1
    rhs       c17       1
    rhs       c18       1
    rhs       c19       1
    rhs       c20       1
    rhs       c21       1
    rhs       c22       1
    rhs       c23       1
    rhs       c24       1
    rhs       c25       1
    rhs       c26       1
    rhs       c27       1
    rhs       c28       1
    rhs       c29       1
    rhs       c30       1
    rhs       c31       1
    rhs       c32       1
    rhs       c33       1
    rhs       c34       1
    rhs       c35       1
    rhs       c36       1
    rhs       c37       1
    rhs       c38       1
    rhs       c39       1
    rhs       c40       1
    rhs       c41       1
    rhs       c42       1
    rhs       c43       1
    rhs       c44       1
    rhs       c45       1
    rhs       c46       1
    rhs       c47       1
    rhs       c48       1
    rhs       c49       1
    rhs       c50       1
RANGES
BOUNDS
 BV bounds    x[1]
 BV bounds    x[2]
 BV bounds    x[3]
 BV bounds    x[4]
 BV bounds    x[5]
 BV bounds    x[6]
 BV bounds    x[7]
 BV bounds    x[8]
 BV bounds    x[9]
 BV bounds    x[10]
 BV bounds    x[11]
 BV bounds    x[12]
 BV bounds    x[13]
 BV bounds    x[14]
 BV bounds    x[15]
 BV bounds    x[16]
 BV bounds    x[17]
 BV bounds    x[18]
 BV bounds    x[19]
 BV bounds    x[20]
 BV bounds    x[21]
 BV bounds    x[22]
 BV bounds    x[23]
 BV bounds    x[24]
 BV bounds    x[25]
 BV bounds    x[26]
 BV bounds    x[27]
 BV bounds    x[28]
 BV bounds    x[29]
 BV bounds    x[30]
 BV bounds    x[31]
 BV bounds    x[32]
 BV bounds    x[33]
 BV bounds    x[34]
 BV bounds    x[35]
 BV bounds    x[36]
 BV bounds    x[37]
 BV bounds    x[38]
 BV bounds    x[39]
 BV bounds    x[40]
 BV bounds    x[41]
 BV bounds    x[42]
 BV bounds    x[43]
 BV bounds    x[44]
 BV bounds    x[45]
 BV bounds    x[46]
 BV bounds    x[47]
 BV bounds    x[48]
 BV bounds    x[49]
 BV bounds    x[50]
ENDATA
